p cnf 25 172
1 2 3 4 0
1 2 3 5 0
1 2 3 6 0
1 2 3 7 0
1 2 4 5 0
1 2 4 6 0
1 2 4 7 0
1 2 5 6 0
1 2 5 7 0
1 2 6 7 0
1 2 3 4 5 0
1 2 3 4 6 0
1 2 3 4 7 0
1 2 3 5 6 0
1 2 3 5 7 0
1 2 3 6 7 0
1 2 4 5 6 0
1 2 4 5 7 0
1 2 4 6 7 0
1 2 5 6 7 0
1 3 4 5 0
1 3 4 6 0
1 3 4 7 0
1 3 5 6 0
1 3 5 7 0
1 3 6 7 0
1 4 5 6 0
1 4 5 7 0
1 4 6 7 0
1 5 6 7 0
1 3 4 5 6 0
1 3 4 5 7 0
1 3 4 6 7 0
1 3 5 6 7 0
1 4 5 6 7 0
2 3 4 5 0
2 3 4 6 0
2 3 4 7 0
2 3 5 6 0
2 3 5 7 0
2 3 6 7 0
2 4 5 6 0
2 4 5 7 0
2 4 6 7 0
2 5 6 7 0
2 3 4 5 6 0
2 3 4 5 7 0
2 3 4 6 7 0
2 3 5 6 7 0
2 4 5 6 7 0
3 4 5 6 0
3 4 5 7 0
3 4 6 7 0
3 5 6 7 0
4 5 6 7 0
3 4 5 6 7 0
8 9 10 0
8 9 11 0
8 9 12 0
8 10 11 0
8 10 12 0
8 11 12 0
8 9 10 11 0
8 9 10 12 0
8 9 11 12 0
8 10 11 12 0
9 10 11 0
9 10 12 0
9 11 12 0
10 11 12 0
9 10 11 12 0
13 14 15 16 0
13 14 15 17 0
13 14 15 18 0
13 14 16 17 0
13 14 16 18 0
13 14 17 18 0
13 15 16 17 0
13 15 16 18 0
13 15 17 18 0
13 16 17 18 0
13 14 15 16 17 0
13 14 15 16 18 0
13 14 15 17 18 0
13 14 16 17 18 0
13 15 16 17 18 0
14 15 16 17 0
14 15 16 18 0
14 15 17 18 0
14 16 17 18 0
15 16 17 18 0
14 15 16 17 18 0
19 20 21 22 0
19 20 21 23 0
19 20 21 24 0
19 20 21 25 0
19 20 22 23 0
19 20 22 24 0
19 20 22 25 0
19 20 23 24 0
19 20 23 25 0
19 20 24 25 0
19 20 21 22 23 0
19 20 21 22 24 0
19 20 21 22 25 0
19 20 21 23 24 0
19 20 21 23 25 0
19 20 21 24 25 0
19 20 22 23 24 0
19 20 22 23 25 0
19 20 22 24 25 0
19 20 23 24 25 0
19 21 22 23 0
19 21 22 24 0
19 21 22 25 0
19 21 23 24 0
19 21 23 25 0
19 21 24 25 0
19 22 23 24 0
19 22 23 25 0
19 22 24 25 0
19 23 24 25 0
19 21 22 23 24 0
19 21 22 23 25 0
19 21 22 24 25 0
19 21 23 24 25 0
19 22 23 24 25 0
20 21 22 23 0
20 21 22 24 0
20 21 22 25 0
20 21 23 24 0
20 21 23 25 0
20 21 24 25 0
20 22 23 24 0
20 22 23 25 0
20 22 24 25 0
20 23 24 25 0
20 21 22 23 24 0
20 21 22 23 25 0
20 21 22 24 25 0
20 21 23 24 25 0
20 22 23 24 25 0
21 22 23 24 0
21 22 23 25 0
21 22 24 25 0
21 23 24 25 0
22 23 24 25 0
21 22 23 24 25 0
-1 -8 -13 0
-1 -8 -19 0
-1 -13 -19 0
-8 -13 -19 0
-2 -9 -14 0
-2 -9 -20 0
-2 -14 -20 0
-9 -14 -20 0
-3 -10 -15 0
-3 -10 -21 0
-3 -15 -21 0
-10 -15 -21 0
-4 -11 0
-4 -11 -22 0
-4 -22 0
-11 -22 0
-12 -16 0
-5 -23 0
-6 -17 0
-6 -24 0
-17 -24 0
-7 -18 0
-7 -25 0
-18 -25 0
